NAME : SCA8-2.112613.tour
COMMENT : Cost = 0_112613
COMMENT : Found by LKH [Keld Helsgaun] Thu Sep 14 15:29:41 2017
TYPE : TOUR
DIMENSION : 59
TOUR_SECTION
1
18
4
41
43
6
12
57
51
45
30
23
25
39
58
29
26
37
34
55
47
27
42
17
38
2
36
59
24
22
8
50
16
35
52
21
14
5
40
7
53
9
32
28
20
54
3
15
46
31
49
19
56
44
33
13
11
10
48
-1
EOF
